p cnf 56 92                 
-4 -3 -7 0
7 -9 0
3 4 -8 0
8 -9 0
9 -13 0
-6 -5 -10 0
10 -12 0
5 6 -11 0
11 -12 0
12 -13 0
-3 -14 0
4 -14 0
3 -4 14 0
-1 14 -15 0
1 -14 -15 0
14 -14 -15 0
15 -18 0
-5 -16 0
6 -16 0
5 -6 16 0
-2 16 -17 0
2 -16 -17 0
16 -16 -17 0
17 -18 0
-5 -40 0
-3 -40 0
5 3 40 0
40 -42 0
4 -41 0
6 -41 0
-4 -6 41 0
41 -42 0
-40 -41 42 0
-2 -42 44 0
-44 -46 0
42 -46 0
-1 -42 43 0
-43 -45 0
42 -45 0
46 45 54 0
1 -22 0
-6 -19 0
-4 -19 0
19 -21 0
3 -20 0
5 -20 0
20 -21 0
21 -22 0
2 -23 0
21 -23 0
1 -29 0
-5 -26 0
-4 -26 0
5 4 26 0
26 -28 0
3 -27 0
6 -27 0
-3 -6 27 0
27 -28 0
-26 -27 28 0
28 -29 0
2 -30 0
28 -30 0
-2 -28 30 0
-30 -32 0
28 -32 0
2 -37 0
-6 -33 0
-3 -33 0
6 3 33 0
33 -35 0
4 -34 0
5 -34 0
-4 -5 34 0
34 -35 0
-33 -34 35 0
35 -37 0
1 -36 0
35 -36 0
-1 -35 36 0
-36 -38 0
35 -38 0
22 -47 0
23 -47 0
29 -49 0
30 -49 0
36 -51 0
37 -51 0
-54 22 23 29 32 37 38 45 46 47 49 51 -55 0
13 0
18 0
55 0
